161
0 87 109 66 119 124 79 80 117 131 
17 28 98 59 23 99 96 157 137 16 
102 46 29 34 3 42 127 88 114 35 
150 57 110 111 9 108 145 93 50 158 
152 133 60 104 120 132 94 154 72 155 
86 65 95 8 18 101 32 105 47 54 
39 74 61 43 77 31 78 130 116 15 
156 91 160 136 123 149 134 97 125 24 
36 68 126 113 30 92 53 37 147 146 
56 82 115 2 27 63 45 118 135 62 
148 40 49 33 5 103 81 141 121 12 
140 10 89 73 22 106 6 84 55 41 
144 19 159 69 83 1 122 48 151 107 
71 25 153 51 20 128 14 142 7 138 
76 100 52 67 11 44 90 112 21 129 
58 64 143 38 4 75 13 26 139 85 
70 
